;  depth   = 3
;  nconst  = 6
;  assertions = 7
;  timeout = 2500
;  time    = {'smt_solvers/QF_S/z3seq/': 0.28165340423583984, 'smt_solvers/QF_S/z3str3/': 0.35709357261657715, 'smt_solvers/QF_S/cvc4/': 138.19038677215576, 'smt_solvers/QF_S/z3str3fed/': 0.22165250778198242}
;  score   = 137.83329319953918
;  stdout  = {'smt_solvers/QF_S/z3seq/': 'unsat', 'smt_solvers/QF_S/z3str3/': 'unsat', 'smt_solvers/QF_S/cvc4/': 'unsat', 'smt_solvers/QF_S/z3str3fed/': 'unsat'}
(set-logic ALL)(declare-fun var0 () String)(declare-fun var1 () String)(declare-fun var2 () String)(declare-fun var3 () String)(declare-fun var4 () String)(declare-fun var5 () String)(declare-fun var6 () Int)(declare-fun var7 () Int)(declare-fun var8 () Int)(declare-fun var9 () Int)(declare-fun var10 () Int)(declare-fun var11 () Int)(declare-fun var12 () Bool)(declare-fun var13 () Bool)(declare-fun var14 () Bool)(declare-fun var15 () Bool)(declare-fun var16 () Bool)(declare-fun var17 () Bool)(assert (> (str.indexof (str.substr "btwSHM=k2@" var10 var9) (str.replace "ISkUL/m45v" var5 var1) (str.indexof "_d@!kit4e(" var5 var6)) (str.indexof var2 var0 var9)))(assert (str.in_re (str.at (str.replace var2 var0 var3) (str.len var5)) (re.* re.allchar)))(assert (str.prefixof var4 var0))(assert (<= (str.len var0) (str.len "Q[k%@:KIOJ")))(assert (str.prefixof (str.replace var3 var1 var1) (str.replace var1 var1 var1)))(assert (<= (str.indexof var0 var4 var8) (str.len var5)))(assert (> (str.indexof var3 var1 var11) (str.len var2)))(check-sat)